\Problem name: compact

Minimize
OBJROW: C
Subject To
ord(0,1):  - x(0,1) + x(0,2) >= 7
ord(0,2):  x(0,0) - x(0,2) >= 7
ord(1,1):  x(1,0) - x(1,1) >= 4
ord(1,2):  - x(1,0) + x(1,2) >= 3
ord(2,1):  - x(2,1) + x(2,2) >= 7
ord(2,2):  x(2,0) - x(2,2) >= 6
triangle2(0,1,0):  y(0,1,0) + y(1,0,0) = 1
triangle2(0,1,1):  y(0,1,1) + y(1,0,1) = 1
triangle2(0,1,2):  y(0,1,2) + y(1,0,2) = 1
triangle2(0,2,0):  y(0,2,0) + y(2,0,0) = 1
triangle2(0,2,1):  y(0,2,1) + y(2,0,1) = 1
triangle2(0,2,2):  y(0,2,2) + y(2,0,2) = 1
triangle2(1,2,0):  y(1,2,0) + y(2,1,0) = 1
triangle2(1,2,1):  y(1,2,1) + y(2,1,1) = 1
triangle2(1,2,2):  y(1,2,2) + y(2,1,2) = 1
MCLinV(0,1,0):  - x(0,0) + v(0,1,0)p - v(0,1,0)n + x(1,0) = -3
MCLinV(1,0,0):  x(0,0) + v(1,0,0)p - v(1,0,0)n - x(1,0) = -1
MCLin1(0,1,0):  u(0,1,0)p - u(0,1,0)n >= 0
MCLin2(0,1,0):  23 y(1,0,0) + u(0,1,0)p - u(0,1,0)n >= 0
MCLin3(0,1,0):  -36 y(1,0,0) - v(0,1,0)p + v(0,1,0)n + u(0,1,0)p - u(0,1,0)n >= -36
MCLin4(0,1,0):  -36 y(1,0,0) + u(0,1,0)p - u(0,1,0)n <= 0
MCLin5(0,1,0):  23 y(1,0,0) - v(0,1,0)p + v(0,1,0)n + u(0,1,0)p - u(0,1,0)n <= 23
MCLin6(1,0,0):  u(1,0,0)p - u(1,0,0)n >= 0
MCLin7(1,0,0):  40 y(0,1,0) + u(1,0,0)p - u(1,0,0)n >= 0
MCLin8(1,0,0):  -19 y(0,1,0) - v(1,0,0)p + v(1,0,0)n + u(1,0,0)p - u(1,0,0)n >= -19
MCLin9(1,0,0):  -19 y(0,1,0) + u(1,0,0)p - u(1,0,0)n <= 0
MCLin10(1,0,0):  40 y(0,1,0) - v(1,0,0)p + v(1,0,0)n + u(1,0,0)p - u(1,0,0)n <= 40
MCLinV(0,1,1):  - x(0,1) + v(0,1,1)p - v(0,1,1)n + x(1,1) = -4
MCLinV(1,0,1):  x(0,1) + v(1,0,1)p - v(1,0,1)n - x(1,1) = -7
MCLin1(0,1,1):  u(0,1,1)p - u(0,1,1)n >= 0
MCLin2(0,1,1):  34 y(1,0,1) + u(0,1,1)p - u(0,1,1)n >= 0
MCLin3(0,1,1):  -25 y(1,0,1) - v(0,1,1)p + v(0,1,1)n + u(0,1,1)p - u(0,1,1)n >= -25
MCLin4(0,1,1):  -25 y(1,0,1) + u(0,1,1)p - u(0,1,1)n <= 0
MCLin5(0,1,1):  34 y(1,0,1) - v(0,1,1)p + v(0,1,1)n + u(0,1,1)p - u(0,1,1)n <= 34
MCLin6(1,0,1):  u(1,0,1)p - u(1,0,1)n >= 0
MCLin7(1,0,1):  36 y(0,1,1) + u(1,0,1)p - u(1,0,1)n >= 0
MCLin8(1,0,1):  -23 y(0,1,1) - v(1,0,1)p + v(1,0,1)n + u(1,0,1)p - u(1,0,1)n >= -23
MCLin9(1,0,1):  -23 y(0,1,1) + u(1,0,1)p - u(1,0,1)n <= 0
MCLin10(1,0,1):  36 y(0,1,1) - v(1,0,1)p + v(1,0,1)n + u(1,0,1)p - u(1,0,1)n <= 36
MCLinV(0,1,2):  - x(0,2) + v(0,1,2)p - v(0,1,2)n + x(1,2) = -7
MCLinV(1,0,2):  x(0,2) + v(1,0,2)p - v(1,0,2)n - x(1,2) = -7
MCLin1(0,1,2):  u(0,1,2)p - u(0,1,2)n >= 0
MCLin2(0,1,2):  37 y(1,0,2) + u(0,1,2)p - u(0,1,2)n >= 0
MCLin3(0,1,2):  -22 y(1,0,2) - v(0,1,2)p + v(0,1,2)n + u(0,1,2)p - u(0,1,2)n >= -22
MCLin4(0,1,2):  -22 y(1,0,2) + u(0,1,2)p - u(0,1,2)n <= 0
MCLin5(0,1,2):  37 y(1,0,2) - v(0,1,2)p + v(0,1,2)n + u(0,1,2)p - u(0,1,2)n <= 37
MCLin6(1,0,2):  u(1,0,2)p - u(1,0,2)n >= 0
MCLin7(1,0,2):  36 y(0,1,2) + u(1,0,2)p - u(1,0,2)n >= 0
MCLin8(1,0,2):  -23 y(0,1,2) - v(1,0,2)p + v(1,0,2)n + u(1,0,2)p - u(1,0,2)n >= -23
MCLin9(1,0,2):  -23 y(0,1,2) + u(1,0,2)p - u(1,0,2)n <= 0
MCLin10(1,0,2):  36 y(0,1,2) - v(1,0,2)p + v(1,0,2)n + u(1,0,2)p - u(1,0,2)n <= 36
MCLinV(0,2,0):  - x(0,0) + v(0,2,0)p - v(0,2,0)n + x(2,0) = -2
MCLinV(2,0,0):  x(0,0) + v(2,0,0)p - v(2,0,0)n - x(2,0) = -1
MCLin1(0,2,0):  u(0,2,0)p - u(0,2,0)n >= 0
MCLin2(0,2,0):  30 y(2,0,0) + u(0,2,0)p - u(0,2,0)n >= 0
MCLin3(0,2,0):  -28 y(2,0,0) - v(0,2,0)p + v(0,2,0)n + u(0,2,0)p - u(0,2,0)n >= -28
MCLin4(0,2,0):  -28 y(2,0,0) + u(0,2,0)p - u(0,2,0)n <= 0
MCLin5(0,2,0):  30 y(2,0,0) - v(0,2,0)p + v(0,2,0)n + u(0,2,0)p - u(0,2,0)n <= 30
MCLin6(2,0,0):  u(2,0,0)p - u(2,0,0)n >= 0
MCLin7(2,0,0):  31 y(0,2,0) + u(2,0,0)p - u(2,0,0)n >= 0
MCLin8(2,0,0):  -27 y(0,2,0) - v(2,0,0)p + v(2,0,0)n + u(2,0,0)p - u(2,0,0)n >= -27
MCLin9(2,0,0):  -27 y(0,2,0) + u(2,0,0)p - u(2,0,0)n <= 0
MCLin10(2,0,0):  31 y(0,2,0) - v(2,0,0)p + v(2,0,0)n + u(2,0,0)p - u(2,0,0)n <= 31
MCLinV(0,2,1):  - x(0,1) + v(0,2,1)p - v(0,2,1)n + x(2,1) = -7
MCLinV(2,0,1):  x(0,1) + v(2,0,1)p - v(2,0,1)n - x(2,1) = -7
MCLin1(0,2,1):  u(0,2,1)p - u(0,2,1)n >= 0
MCLin2(0,2,1):  36 y(2,0,1) + u(0,2,1)p - u(0,2,1)n >= 0
MCLin3(0,2,1):  -22 y(2,0,1) - v(0,2,1)p + v(0,2,1)n + u(0,2,1)p - u(0,2,1)n >= -22
MCLin4(0,2,1):  -22 y(2,0,1) + u(0,2,1)p - u(0,2,1)n <= 0
MCLin5(0,2,1):  36 y(2,0,1) - v(0,2,1)p + v(0,2,1)n + u(0,2,1)p - u(0,2,1)n <= 36
MCLin6(2,0,1):  u(2,0,1)p - u(2,0,1)n >= 0
MCLin7(2,0,1):  36 y(0,2,1) + u(2,0,1)p - u(2,0,1)n >= 0
MCLin8(2,0,1):  -22 y(0,2,1) - v(2,0,1)p + v(2,0,1)n + u(2,0,1)p - u(2,0,1)n >= -22
MCLin9(2,0,1):  -22 y(0,2,1) + u(2,0,1)p - u(2,0,1)n <= 0
MCLin10(2,0,1):  36 y(0,2,1) - v(2,0,1)p + v(2,0,1)n + u(2,0,1)p - u(2,0,1)n <= 36
MCLinV(0,2,2):  - x(0,2) + v(0,2,2)p - v(0,2,2)n + x(2,2) = -6
MCLinV(2,0,2):  x(0,2) + v(2,0,2)p - v(2,0,2)n - x(2,2) = -7
MCLin1(0,2,2):  u(0,2,2)p - u(0,2,2)n >= 0
MCLin2(0,2,2):  35 y(2,0,2) + u(0,2,2)p - u(0,2,2)n >= 0
MCLin3(0,2,2):  -23 y(2,0,2) - v(0,2,2)p + v(0,2,2)n + u(0,2,2)p - u(0,2,2)n >= -23
MCLin4(0,2,2):  -23 y(2,0,2) + u(0,2,2)p - u(0,2,2)n <= 0
MCLin5(0,2,2):  35 y(2,0,2) - v(0,2,2)p + v(0,2,2)n + u(0,2,2)p - u(0,2,2)n <= 35
MCLin6(2,0,2):  u(2,0,2)p - u(2,0,2)n >= 0
MCLin7(2,0,2):  36 y(0,2,2) + u(2,0,2)p - u(2,0,2)n >= 0
MCLin8(2,0,2):  -22 y(0,2,2) - v(2,0,2)p + v(2,0,2)n + u(2,0,2)p - u(2,0,2)n >= -22
MCLin9(2,0,2):  -22 y(0,2,2) + u(2,0,2)p - u(2,0,2)n <= 0
MCLin10(2,0,2):  36 y(0,2,2) - v(2,0,2)p + v(2,0,2)n + u(2,0,2)p - u(2,0,2)n <= 36
MCLinV(1,2,0):  - x(1,0) + v(1,2,0)p - v(1,2,0)n + x(2,0) = -2
MCLinV(2,1,0):  x(1,0) + v(2,1,0)p - v(2,1,0)n - x(2,0) = -3
MCLin1(1,2,0):  u(1,2,0)p - u(1,2,0)n >= 0
MCLin2(1,2,0):  40 y(2,1,0) + u(1,2,0)p - u(1,2,0)n >= 0
MCLin3(1,2,0):  -19 y(2,1,0) - v(1,2,0)p + v(1,2,0)n + u(1,2,0)p - u(1,2,0)n >= -19
MCLin4(1,2,0):  -19 y(2,1,0) + u(1,2,0)p - u(1,2,0)n <= 0
MCLin5(1,2,0):  40 y(2,1,0) - v(1,2,0)p + v(1,2,0)n + u(1,2,0)p - u(1,2,0)n <= 40
MCLin6(2,1,0):  u(2,1,0)p - u(2,1,0)n >= 0
MCLin7(2,1,0):  24 y(1,2,0) + u(2,1,0)p - u(2,1,0)n >= 0
MCLin8(2,1,0):  -35 y(1,2,0) - v(2,1,0)p + v(2,1,0)n + u(2,1,0)p - u(2,1,0)n >= -35
MCLin9(2,1,0):  -35 y(1,2,0) + u(2,1,0)p - u(2,1,0)n <= 0
MCLin10(2,1,0):  24 y(1,2,0) - v(2,1,0)p + v(2,1,0)n + u(2,1,0)p - u(2,1,0)n <= 24
MCLinV(1,2,1):  - x(1,1) + v(1,2,1)p - v(1,2,1)n + x(2,1) = -7
MCLinV(2,1,1):  x(1,1) + v(2,1,1)p - v(2,1,1)n - x(2,1) = -4
MCLin1(1,2,1):  u(1,2,1)p - u(1,2,1)n >= 0
MCLin2(1,2,1):  36 y(2,1,1) + u(1,2,1)p - u(1,2,1)n >= 0
MCLin3(1,2,1):  -23 y(2,1,1) - v(1,2,1)p + v(1,2,1)n + u(1,2,1)p - u(1,2,1)n >= -23
MCLin4(1,2,1):  -23 y(2,1,1) + u(1,2,1)p - u(1,2,1)n <= 0
MCLin5(1,2,1):  36 y(2,1,1) - v(1,2,1)p + v(1,2,1)n + u(1,2,1)p - u(1,2,1)n <= 36
MCLin6(2,1,1):  u(2,1,1)p - u(2,1,1)n >= 0
MCLin7(2,1,1):  34 y(1,2,1) + u(2,1,1)p - u(2,1,1)n >= 0
MCLin8(2,1,1):  -25 y(1,2,1) - v(2,1,1)p + v(2,1,1)n + u(2,1,1)p - u(2,1,1)n >= -25
MCLin9(2,1,1):  -25 y(1,2,1) + u(2,1,1)p - u(2,1,1)n <= 0
MCLin10(2,1,1):  34 y(1,2,1) - v(2,1,1)p + v(2,1,1)n + u(2,1,1)p - u(2,1,1)n <= 34
MCLinV(1,2,2):  - x(1,2) + v(1,2,2)p - v(1,2,2)n + x(2,2) = -6
MCLinV(2,1,2):  x(1,2) + v(2,1,2)p - v(2,1,2)n - x(2,2) = -7
MCLin1(1,2,2):  u(1,2,2)p - u(1,2,2)n >= 0
MCLin2(1,2,2):  35 y(2,1,2) + u(1,2,2)p - u(1,2,2)n >= 0
MCLin3(1,2,2):  -24 y(2,1,2) - v(1,2,2)p + v(1,2,2)n + u(1,2,2)p - u(1,2,2)n >= -24
MCLin4(1,2,2):  -24 y(2,1,2) + u(1,2,2)p - u(1,2,2)n <= 0
MCLin5(1,2,2):  35 y(2,1,2) - v(1,2,2)p + v(1,2,2)n + u(1,2,2)p - u(1,2,2)n <= 35
MCLin6(2,1,2):  u(2,1,2)p - u(2,1,2)n >= 0
MCLin7(2,1,2):  37 y(1,2,2) + u(2,1,2)p - u(2,1,2)n >= 0
MCLin8(2,1,2):  -22 y(1,2,2) - v(2,1,2)p + v(2,1,2)n + u(2,1,2)p - u(2,1,2)n >= -22
MCLin9(2,1,2):  -22 y(1,2,2) + u(2,1,2)p - u(2,1,2)n <= 0
MCLin10(2,1,2):  37 y(1,2,2) - v(2,1,2)p + v(2,1,2)n + u(2,1,2)p - u(2,1,2)n <= 37
makespan(0):  C - x(0,0) >= 1
makespan(1):  C - x(1,2) >= 7
makespan(2):  C - x(2,0) >= 2
cut_clique_1(0,1):  0.75619 x(0,1) + 0.74630 x(1,1) + 0.18002 x(2,1) >= 1
cut_clique_1(1,1):  0.99544 x(0,1) + 0.98458 x(1,1) + 0.59042 x(2,1) >= 1
cut_clique_1(2,1):  0.99544 x(0,1) + 0.98458 x(1,1) + 0.75557 x(2,1) >= 1
cut_clique_1(3,1):  0.83181 x(0,1) + 0.78361 x(1,1) + 0.18722 x(2,1) >= 1
cut_clique_1(4,1):  0.96532 x(0,1) + 0.52371 x(1,1) + 0.19355 x(2,1) >= 1
cut_clique_1(5,1):  0.93465 x(0,1) + 0.85414 x(1,1) + 0.18722 x(2,1) >= 1
cut_clique_1(6,1):  0.94399 x(0,1) + 0.85414 x(1,1) + 0.21983 x(2,1) >= 1
cut_clique_1(7,1):  0.89679 x(0,1) + 0.98458 x(1,1) + 0.20612 x(2,1) >= 1
cut_clique_1(8,1):  0.89679 x(0,1) + 0.98458 x(1,1) + 0.26703 x(2,1) >= 1
cut_clique_1(9,1):  0.89679 x(0,1) + 0.98458 x(1,1) + 0.24725 x(2,1) >= 1
cut_clique_1(10,1):  0.99544 x(0,1) + 0.99442 x(1,1) + 0.99034 x(2,1) >= 1
cut_clique_1(11,1):  0.94399 x(0,1) + 0.85414 x(1,1) + 0.18685 x(2,1) >= 1
cut_clique_1(12,1):  0.99544 x(0,1) + 0.98458 x(1,1) + 0.33796 x(2,1) >= 1
cut_clique_1(13,1):  0.99544 x(0,1) + 0.98458 x(1,1) + 0.58458 x(2,1) >= 1
cut_clique_1(14,1):  0.99544 x(0,1) + 0.98458 x(1,1) + 0.70614 x(2,1) >= 1
cut_clique_1(15,1):  0.83181 x(0,1) + 0.74630 x(1,1) + 0.18722 x(2,1) >= 1
cut_clique_1(16,1):  0.99544 x(0,1) + 0.98458 x(1,1) + 0.45781 x(2,1) >= 1
cut_clique_1(17,1):  0.94399 x(0,1) + 0.96518 x(1,1) + 0.18685 x(2,1) >= 1
cut_clique_1(18,1):  0.99544 x(0,1) + 0.98458 x(1,1) + 0.61404 x(2,1) >= 1
cut_clique_1(19,1):  0.99544 x(0,1) + 0.99442 x(1,1) + 0.99044 x(2,1) >= 1
cut_clique_1(20,1):  0.79599 x(0,1) + 0.79259 x(1,1) + 0.17477 x(2,1) >= 1
cut_clique_1(21,1):  0.99544 x(0,1) + 0.98458 x(1,1) + 0.26703 x(2,1) >= 1
cut_clique_1(22,1):  0.79599 x(0,1) + 0.74630 x(1,1) + 0.18002 x(2,1) >= 1
cut_clique_1(23,1):  0.94399 x(0,1) + 0.97483 x(1,1) + 0.18685 x(2,1) >= 1
cut_clique_1(24,1):  0.99544 x(0,1) + 0.98458 x(1,1) + 0.51732 x(2,1) >= 1
cut_clique_1(25,1):  0.91632 x(0,1) + 0.78361 x(1,1) + 0.18722 x(2,1) >= 1
cut_clique_1(26,1):  0.79599 x(0,1) + 0.69748 x(1,1) + 0.18002 x(2,1) >= 1
cut_clique_1(27,1):  0.89835 x(0,1) + 0.78361 x(1,1) + 0.18722 x(2,1) >= 1
cut_clique_1(28,1):  0.75619 x(0,1) + 0.74630 x(1,1) + 0.18722 x(2,1) >= 1
cut_clique_1(29,1):  0.99544 x(0,1) + 0.98458 x(1,1) + 0.36499 x(2,1) >= 1
cut_clique_1(30,1):  0.94399 x(0,1) + 0.98458 x(1,1) + 0.18685 x(2,1) >= 1
cut_clique_1(31,1):  0.99544 x(0,1) + 0.98458 x(1,1) + 0.29908 x(2,1) >= 1
cut_clique_1(32,1):  0.79599 x(0,1) + 0.69748 x(1,1) + 0.17477 x(2,1) >= 1
cut_clique_1(33,1):  0.89679 x(0,1) + 0.98458 x(1,1) + 0.23108 x(2,1) >= 1
cut_clique_1(34,1):  0.94399 x(0,1) + 0.98458 x(1,1) + 0.17191 x(2,1) >= 1
cut_clique_1(35,1):  0.99544 x(0,1) + 0.98458 x(1,1) + 0.40514 x(2,1) >= 1
cut_clique_1(36,1):  0.99544 x(0,1) + 0.98458 x(1,1) + 0.88946 x(2,1) >= 1
cut_clique_1(37,1):  0.94399 x(0,1) + 0.98458 x(1,1) + 0.20612 x(2,1) >= 1
cut_clique_1(38,1):  0.99544 x(0,1) + 0.99442 x(1,1) + 0.98053 x(2,1) >= 1
cut_clique_1(39,1):  0.94399 x(0,1) + 0.85414 x(1,1) + 0.19283 x(2,1) >= 1
cut_clique_1(40,1):  0.96532 x(0,1) + 0.52371 x(1,1) + 0.20322 x(2,1) >= 1
cut_clique_1(41,1):  0.99544 x(0,1) + 0.99442 x(1,1) + 0.98063 x(2,1) >= 1
cut_clique_1(42,1):  0.99544 x(0,1) + 0.98458 x(1,1) + 0.82358 x(2,1) >= 1
cut_clique_1(43,1):  0.93465 x(0,1) + 0.78361 x(1,1) + 0.18722 x(2,1) >= 1
cut_clique_1(44,1):  0.93465 x(0,1) + 0.85414 x(1,1) + 0.19283 x(2,1) >= 1
cut_clique_1(45,1):  0.99544 x(0,1) + 0.98458 x(1,1) + 0.98063 x(2,1) >= 1
cut_clique_1(46,1):  0.87933 x(0,1) + 0.59071 x(1,1) + 0.22145 x(2,1) >= 1
cut_clique_1(47,1):  0.99544 x(0,1) + 0.98458 x(1,1) + 0.93394 x(2,1) >= 1
cut_clique_1(48,1):  0.89679 x(0,1) + 0.98458 x(1,1) + 0.20818 x(2,1) >= 1
cut_clique_1(49,1):  0.94399 x(0,1) + 0.98458 x(1,1) + 0.18910 x(2,1) >= 1
cut_clique_1(0,2):  0.04499 x(0,2) + 0.09355 x(2,2) >= 1
cut_clique_1(1,2):  0.04184 x(0,2) + 0.09355 x(2,2) >= 1
cut_clique_1(2,2):  0.03598 x(0,2) + 0.09355 x(2,2) >= 1
cut_clique_1(3,2):  0.03095 x(0,2) + 0.09355 x(2,2) >= 1
cut_clique_1(4,2):  0.03435 x(0,2) + 0.09355 x(2,2) >= 1
cut_clique_1(5,2):  0.03607 x(0,2) + 0.09355 x(2,2) >= 1
cut_clique_1(6,2):  0.03607 x(0,2) + 0.09168 x(2,2) >= 1
cut_clique_1(7,2):  0.03607 x(0,2) + 0.10176 x(2,2) >= 1
cut_clique_1(8,2):  0.03282 x(0,2) + 0.10176 x(2,2) >= 1
cut_clique_1(9,2):  0.03282 x(0,2) + 0.09159 x(2,2) >= 1
cut_clique_1(10,2):  0.02921 x(0,2) + 0.09159 x(2,2) >= 1
cut_clique_1(11,2):  0.02921 x(0,2) + 0.10258 x(2,2) >= 1
cut_clique_1(12,2):  0.02921 x(0,2) + 0.10145 x(2,2) >= 1
cut_clique_1(13,2):  0.03242 x(0,2) + 0.10145 x(2,2) >= 1
cut_clique_1(14,2):  0.03242 x(0,2) + 0.09942 x(2,2) >= 1
cut_clique_1(15,2):  0.03178 x(0,2) + 0.09942 x(2,2) >= 1
cut_clique_1(16,2):  0.03178 x(0,2) + 0.10439 x(2,2) >= 1
cut_clique_1(17,2):  0.03082 x(0,2) + 0.10439 x(2,2) >= 1
cut_clique_1(18,2):  0.03082 x(0,2) + 0.09708 x(2,2) >= 1
cut_clique_1(19,2):  0.03082 x(0,2) + 0.08738 x(2,2) >= 1
cut_clique_1(20,2):  0.03082 x(0,2) + 0.09174 x(2,2) >= 1
cut_clique_1(21,2):  0.03483 x(0,2) + 0.09174 x(2,2) >= 1
cut_clique_1(22,2):  0.03483 x(0,2) + 0.08349 x(2,2) >= 1
cut_clique_1(23,2):  0.03483 x(0,2) + 0.09351 x(2,2) >= 1
cut_clique_1(24,2):  0.03483 x(0,2) + 0.09164 x(2,2) >= 1
cut_clique_1(25,2):  0.03483 x(0,2) + 0.09438 x(2,2) >= 1
cut_clique_1(26,2):  0.03483 x(0,2) + 0.08495 x(2,2) >= 1
cut_clique_1(27,2):  0.03587 x(0,2) + 0.08495 x(2,2) >= 1
cut_clique_1(28,2):  0.03587 x(0,2) + 0.09344 x(2,2) >= 1
cut_clique_1(29,2):  0.03623 x(0,2) + 0.09344 x(2,2) >= 1
cut_clique_1(30,2):  0.03623 x(0,2) + 0.08036 x(2,2) >= 1
cut_clique_1(31,2):  0.13418 x(0,2) + 0.00654 x(2,2) >= 1
cut_clique_1(32,2):  0.13418 x(0,2) + 0.00660 x(2,2) >= 1
cut_clique_1(33,2):  0.13418 x(0,2) + 0.00601 x(2,2) >= 1
cut_clique_1(34,2):  0.03400 x(0,2) + 0.09288 x(1,2) >= 1
cut_clique_1(35,2):  0.03060 x(0,2) + 0.09288 x(1,2) >= 1
cut_clique_1(36,2):  0.02693 x(0,2) + 0.09288 x(1,2) >= 1
cut_clique_1(37,2):  0.02908 x(0,2) + 0.09288 x(1,2) >= 1
cut_clique_1(38,2):  0.03141 x(0,2) + 0.09288 x(1,2) >= 1
cut_clique_1(39,2):  0.02889 x(0,2) + 0.09288 x(1,2) >= 1
cut_clique_1(40,2):  0.02889 x(0,2) + 0.08730 x(1,2) >= 1
cut_clique_1(41,2):  0.02832 x(0,2) + 0.08730 x(1,2) >= 1
cut_clique_1(42,2):  0.02860 x(0,2) + 0.08730 x(1,2) >= 1
cut_clique_1(43,2):  0.02831 x(0,2) + 0.08730 x(1,2) >= 1
cut_clique_1(44,2):  0.02803 x(0,2) + 0.08730 x(1,2) >= 1
cut_clique_2(0,1):  0.63250 x(1,1) + 0.82732 x(2,1) >= 1
cut_clique_2(1,1):  0.63250 x(1,1) + 0.93488 x(2,1) >= 1
cut_clique_2(2,1):  0.70840 x(1,1) + 0.93488 x(2,1) >= 1
cut_clique_2(3,1):  0.68715 x(1,1) + 0.93488 x(2,1) >= 1
cut_clique_2(4,1):  0.68715 x(1,1) + 0.89748 x(2,1) >= 1
cut_clique_2(5,1):  0.68715 x(1,1) + 0.83466 x(2,1) >= 1
cut_clique_2(6,1):  0.68715 x(1,1) + 0.71780 x(2,1) >= 1
cut_clique_2(7,1):  0.68715 x(1,1) + 0.67474 x(2,1) >= 1
cut_clique_2(8,1):  0.68715 x(1,1) + 0.68823 x(2,1) >= 1
cut_clique_2(9,1):  0.68715 x(1,1) + 0.66070 x(2,1) >= 1
cut_clique_2(10,1):  0.67341 x(1,1) + 0.66070 x(2,1) >= 1
cut_clique_2(11,1):  0.67341 x(1,1) + 0.68713 x(2,1) >= 1
cut_clique_2(12,1):  0.59933 x(1,1) + 0.68713 x(2,1) >= 1
cut_clique_2(13,1):  0.59933 x(1,1) + 0.75584 x(2,1) >= 1
cut_clique_2(14,1):  0.52142 x(1,1) + 0.75584 x(2,1) >= 1
cut_clique_2(15,1):  0.52142 x(1,1) + 0.82387 x(2,1) >= 1
cut_clique_2(16,1):  0.52142 x(1,1) + 0.80739 x(2,1) >= 1
cut_clique_2(17,1):  0.58920 x(1,1) + 0.80739 x(2,1) >= 1
cut_clique_2(18,1):  0.58920 x(1,1) + 0.74280 x(2,1) >= 1
cut_clique_2(19,1):  0.63045 x(1,1) + 0.74280 x(2,1) >= 1
cut_clique_2(20,1):  0.63045 x(1,1) + 0.63881 x(2,1) >= 1
cut_clique_2(21,1):  0.63045 x(1,1) + 0.69630 x(2,1) >= 1
cut_clique_2(22,1):  0.63045 x(1,1) + 0.75897 x(2,1) >= 1
cut_clique_2(23,1):  0.63045 x(1,1) + 0.70584 x(2,1) >= 1
cut_clique_2(24,1):  0.55479 x(1,1) + 0.70584 x(2,1) >= 1
cut_clique_2(25,1):  0.63801 x(1,1) + 0.70584 x(2,1) >= 1
cut_clique_2(26,1):  0.56783 x(1,1) + 0.70584 x(2,1) >= 1
cut_clique_2(27,1):  0.56215 x(1,1) + 0.70584 x(2,1) >= 1
cut_clique_2(28,1):  0.48907 x(1,1) + 0.70584 x(2,1) >= 1
cut_clique_2(29,1):  0.48418 x(1,1) + 0.70584 x(2,1) >= 1
cut_clique_2(30,1):  0.48418 x(1,1) + 0.69878 x(2,1) >= 1
cut_clique_2(31,1):  0.47934 x(1,1) + 0.69878 x(2,1) >= 1
cut_clique_2(32,1):  0.43620 x(1,1) + 0.69878 x(2,1) >= 1
cut_clique_2(33,1):  0.49727 x(1,1) + 0.69878 x(2,1) >= 1
cut_clique_2(34,1):  0.49727 x(1,1) + 0.80360 x(2,1) >= 1
cut_clique_2(35,1):  0.49727 x(1,1) + 0.83574 x(2,1) >= 1
cut_clique_2(36,1):  0.46246 x(1,1) + 0.83574 x(2,1) >= 1
cut_clique_2(37,1):  0.46246 x(1,1) + 0.81903 x(2,1) >= 1
cut_clique_2(38,1):  0.46246 x(1,1) + 0.90912 x(2,1) >= 1
cut_clique_2(39,1):  0.46246 x(1,1) + 0.85457 x(2,1) >= 1
cut_clique_2(40,1):  0.46246 x(1,1) + 0.83748 x(2,1) >= 1
cut_clique_2(41,1):  0.46246 x(1,1) + 0.77048 x(2,1) >= 1
cut_clique_2(42,1):  0.43934 x(1,1) + 0.77048 x(2,1) >= 1
cut_clique_2(43,1):  0.37344 x(1,1) + 0.77048 x(2,1) >= 1
cut_clique_2(44,1):  0.32862 x(1,1) + 0.77048 x(2,1) >= 1
cut_clique_2(45,1):  0.33520 x(1,1) + 0.77048 x(2,1) >= 1
cut_clique_2(46,1):  0.99486 x(1,1) + 0.99332 x(2,1) >= 1
cut_clique_2(47,1):  0.99486 x(1,1) + 0.99193 x(2,1) >= 1
cut_clique_2(48,1):  0.28978 x(1,1) + 0.80901 x(2,1) >= 1
cut_clique_2(49,1):  0.31006 x(1,1) + 0.80901 x(2,1) >= 1
cut_clique_2(0,2):  0.04005 x(0,2) + 0.07241 x(1,2) >= 1
cut_clique_2(1,2):  0.03524 x(0,2) + 0.07603 x(1,2) >= 1
cut_clique_2(2,2):  0.03379 x(0,2) + 0.08102 x(1,2) >= 1
cut_clique_2(3,2):  0.03244 x(0,2) + 0.08102 x(1,2) >= 1
cut_clique_2(4,2):  0.03244 x(0,2) + 0.07940 x(1,2) >= 1
cut_clique_2(5,2):  0.03406 x(0,2) + 0.07940 x(1,2) >= 1
cut_clique_2(6,2):  0.03372 x(0,2) + 0.07940 x(1,2) >= 1
cut_clique_2(7,2):  0.03203 x(0,2) + 0.07940 x(1,2) >= 1
cut_clique_2(8,2):  0.03299 x(0,2) + 0.07940 x(1,2) >= 1
cut_clique_2(9,2):  0.03431 x(0,2) + 0.07940 x(1,2) >= 1
cut_clique_2(10,2):  0.03534 x(0,2) + 0.07940 x(1,2) >= 1
cut_clique_2(11,2):  0.03287 x(0,2) + 0.07940 x(1,2) >= 1
cut_clique_2(12,2):  0.03254 x(0,2) + 0.07940 x(1,2) >= 1
cut_clique_2(13,2):  0.03254 x(0,2) + 0.07781 x(1,2) >= 1
cut_clique_2(14,2):  0.03254 x(0,2) + 0.07859 x(1,2) >= 1
cut_clique_2(15,2):  0.03352 x(0,2) + 0.07859 x(1,2) >= 1
cut_clique_2(16,2):  0.03486 x(0,2) + 0.07859 x(1,2) >= 1
cut_clique_2(17,2):  0.03451 x(0,2) + 0.07859 x(1,2) >= 1
cut_clique_2(18,2):  0.03416 x(0,2) + 0.07859 x(1,2) >= 1
cut_clique_2(19,2):  0.03587 x(0,2) + 0.07859 x(1,2) >= 1
cut_clique_2(20,2):  0.03587 x(0,2) + 0.07151 x(1,2) >= 1
cut_clique_3(0,1):  0.09582 x(0,1) + 0.28250 x(1,1) + 0.05625 x(2,1) >= 1
cut_clique_3(1,1):  0.08326 x(0,1) + 0.07201 x(1,1) + 0.06214 x(2,1) >= 1
cut_clique_3(2,1):  0.07753 x(0,1) + 0.05917 x(1,1) + 0.06624 x(2,1) >= 1
cut_clique_3(3,1):  0.09582 x(0,1) + 0.36069 x(1,1) + 0.05625 x(2,1) >= 1
cut_clique_3(4,1):  0.09582 x(0,1) + 0.79404 x(1,1) + 0.05625 x(2,1) >= 1
cut_clique_3(5,1):  0.07299 x(0,1) + 0.05809 x(1,1) + 0.06486 x(2,1) >= 1
cut_clique_3(6,1):  0.09582 x(0,1) + 0.84232 x(1,1) + 0.05625 x(2,1) >= 1
cut_clique_3(7,1):  0.09582 x(0,1) + 0.32205 x(1,1) + 0.05625 x(2,1) >= 1
cut_clique_3(8,1):  0.06861 x(0,1) + 0.05521 x(1,1) + 0.06624 x(2,1) >= 1
cut_clique_3(9,1):  0.07753 x(0,1) + 0.06164 x(1,1) + 0.06624 x(2,1) >= 1
cut_clique_3(10,1):  0.09582 x(0,1) + 0.48004 x(1,1) + 0.05625 x(2,1) >= 1
cut_clique_3(11,1):  0.07922 x(0,1) + 0.04957 x(1,1) + 0.06581 x(2,1) >= 1
cut_clique_3(12,1):  0.09582 x(0,1) + 0.23395 x(1,1) + 0.05625 x(2,1) >= 1
cut_clique_3(13,1):  0.09582 x(0,1) + 0.39315 x(1,1) + 0.05625 x(2,1) >= 1
cut_clique_3(14,1):  0.06978 x(0,1) + 0.05740 x(1,1) + 0.07021 x(2,1) >= 1
cut_clique_3(15,1):  0.08244 x(0,1) + 0.08091 x(1,1) + 0.06214 x(2,1) >= 1
cut_clique_3(16,1):  0.09582 x(0,1) + 0.21077 x(1,1) + 0.05625 x(2,1) >= 1
cut_clique_3(17,1):  0.09582 x(0,1) + 0.82580 x(1,1) + 0.05625 x(2,1) >= 1
cut_clique_3(18,1):  0.06978 x(0,1) + 0.05917 x(1,1) + 0.06624 x(2,1) >= 1
cut_clique_3(19,1):  0.08326 x(0,1) + 0.07201 x(1,1) + 0.06089 x(2,1) >= 1
cut_clique_3(20,1):  0.06861 x(0,1) + 0.05454 x(1,1) + 0.06624 x(2,1) >= 1
cut_clique_3(21,1):  0.07922 x(0,1) + 0.05110 x(1,1) + 0.06581 x(2,1) >= 1
cut_clique_3(22,1):  0.06978 x(0,1) + 0.06026 x(1,1) + 0.07021 x(2,1) >= 1
cut_clique_3(23,1):  0.06978 x(0,1) + 0.05436 x(1,1) + 0.06581 x(2,1) >= 1
cut_clique_3(24,1):  0.07299 x(0,1) + 0.05809 x(1,1) + 0.06974 x(2,1) >= 1
cut_clique_3(25,1):  0.09582 x(0,1) + 0.56039 x(1,1) + 0.05625 x(2,1) >= 1
cut_clique_3(26,1):  0.08326 x(0,1) + 0.06553 x(1,1) + 0.06089 x(2,1) >= 1
cut_clique_3(27,1):  0.09582 x(0,1) + 0.51412 x(1,1) + 0.05625 x(2,1) >= 1
cut_clique_3(28,1):  0.06978 x(0,1) + 0.05917 x(1,1) + 0.07021 x(2,1) >= 1
cut_clique_3(29,1):  0.09582 x(0,1) + 0.99095 x(1,1) + 0.05625 x(2,1) >= 1
cut_clique_3(30,1):  0.06861 x(0,1) + 0.05112 x(1,1) + 0.06624 x(2,1) >= 1
cut_clique_3(31,1):  0.08244 x(0,1) + 0.08091 x(1,1) + 0.06289 x(2,1) >= 1
cut_clique_3(32,1):  0.07299 x(0,1) + 0.05112 x(1,1) + 0.06624 x(2,1) >= 1
cut_clique_3(33,1):  0.06861 x(0,1) + 0.06129 x(1,1) + 0.06624 x(2,1) >= 1
cut_clique_3(34,1):  0.09582 x(0,1) + 0.43247 x(1,1) + 0.05625 x(2,1) >= 1
cut_clique_3(35,1):  0.09582 x(0,1) + 0.94340 x(1,1) + 0.05625 x(2,1) >= 1
cut_clique_3(36,1):  0.09582 x(0,1) + 0.75594 x(1,1) + 0.05625 x(2,1) >= 1
cut_clique_3(37,1):  0.06978 x(0,1) + 0.05110 x(1,1) + 0.06581 x(2,1) >= 1
cut_clique_3(38,1):  0.09582 x(0,1) + 0.65734 x(1,1) + 0.05625 x(2,1) >= 1
cut_clique_3(39,1):  0.09582 x(0,1) + 0.50404 x(1,1) + 0.05625 x(2,1) >= 1
cut_clique_3(40,1):  0.07753 x(0,1) + 0.05454 x(1,1) + 0.06624 x(2,1) >= 1
cut_clique_3(41,1):  0.07299 x(0,1) + 0.05112 x(1,1) + 0.06486 x(2,1) >= 1
cut_clique_3(42,1):  0.09582 x(0,1) + 0.76350 x(1,1) + 0.05625 x(2,1) >= 1
cut_clique_3(43,1):  0.09582 x(0,1) + 0.64445 x(1,1) + 0.05625 x(2,1) >= 1
cut_clique_3(44,1):  0.07077 x(0,1) + 0.07078 x(1,1) + 0.06906 x(2,1) >= 1
cut_clique_3(45,1):  0.09582 x(0,1) + 0.98113 x(1,1) + 0.05625 x(2,1) >= 1
cut_clique_3(46,1):  0.09582 x(0,1) + 0.26904 x(1,1) + 0.05625 x(2,1) >= 1
cut_clique_3(47,1):  0.07396 x(0,1) + 0.05110 x(1,1) + 0.06581 x(2,1) >= 1
cut_clique_3(48,1):  0.07544 x(0,1) + 0.05110 x(1,1) + 0.06581 x(2,1) >= 1
cut_clique_3(49,1):  0.08326 x(0,1) + 0.08091 x(1,1) + 0.06214 x(2,1) >= 1
cut_clique_3(0,2):  0.08040 x(0,2) + 0.03219 x(2,2) >= 1
cut_clique_3(1,2):  0.08040 x(0,2) + 0.03283 x(2,2) >= 1
cut_clique_3(2,2):  0.08040 x(0,2) + 0.03217 x(2,2) >= 1
cut_clique_3(3,2):  0.07959 x(0,2) + 0.03217 x(2,2) >= 1
cut_clique_3(4,2):  0.07959 x(0,2) + 0.03185 x(2,2) >= 1
cut_clique_4(0,1):  0.07957 x(0,1) + 0.04472 x(1,1) + 0.06249 x(2,1) >= 1
cut_clique_4(1,1):  0.07161 x(0,1) + 0.04555 x(1,1) + 0.06499 x(2,1) >= 1
cut_clique_4(2,1):  0.07232 x(0,1) + 0.04555 x(1,1) + 0.06499 x(2,1) >= 1
cut_clique_4(3,1):  0.07232 x(0,1) + 0.04191 x(1,1) + 0.06499 x(2,1) >= 1
cut_clique_4(4,1):  0.07232 x(0,1) + 0.04107 x(1,1) + 0.06499 x(2,1) >= 1
cut_clique_4(5,1):  0.07160 x(0,1) + 0.04107 x(1,1) + 0.06499 x(2,1) >= 1
Bounds
 0 <= C <= 44
 14 <= x(0,0) <= 43
 0 <= y(0,1,0) <= 1
 0 <= y(1,0,0) <= 1
 0 <= v(0,1,0)p <= 36
 0 <= v(0,1,0)n <= 23
 0 <= v(1,0,0)p <= 19
 0 <= v(1,0,0)n <= 40
 0 <= u(0,1,0)p <= 440
 0 <= u(0,1,0)n <= 440
 0 <= u(1,0,0)p <= 440
 0 <= u(1,0,0)n <= 440
 0 <= y(0,2,0) <= 1
 0 <= y(2,0,0) <= 1
 0 <= v(0,2,0)p <= 28
 0 <= v(0,2,0)n <= 30
 0 <= v(2,0,0)p <= 27
 0 <= v(2,0,0)n <= 31
 0 <= u(0,2,0)p <= 440
 0 <= u(0,2,0)n <= 440
 0 <= u(2,0,0)p <= 440
 0 <= u(2,0,0)n <= 440
 4 <= x(1,0) <= 34
 0 <= y(1,2,0) <= 1
 0 <= y(2,1,0) <= 1
 0 <= v(1,2,0)p <= 19
 0 <= v(1,2,0)n <= 40
 0 <= v(2,1,0)p <= 35
 0 <= v(2,1,0)n <= 24
 0 <= u(1,2,0)p <= 440
 0 <= u(1,2,0)n <= 440
 0 <= u(2,1,0)p <= 440
 0 <= u(2,1,0)n <= 440
 13 <= x(2,0) <= 42
 0 <= x(0,1) <= 29
 0 <= y(0,1,1) <= 1
 0 <= y(1,0,1) <= 1
 0 <= v(0,1,1)p <= 25
 0 <= v(0,1,1)n <= 34
 0 <= v(1,0,1)p <= 23
 0 <= v(1,0,1)n <= 36
 0 <= u(0,1,1)p <= 440
 0 <= u(0,1,1)n <= 440
 0 <= u(1,0,1)p <= 440
 0 <= u(1,0,1)n <= 440
 0 <= y(0,2,1) <= 1
 0 <= y(2,0,1) <= 1
 0 <= v(0,2,1)p <= 22
 0 <= v(0,2,1)n <= 36
 0 <= v(2,0,1)p <= 22
 0 <= v(2,0,1)n <= 36
 0 <= u(0,2,1)p <= 440
 0 <= u(0,2,1)n <= 440
 0 <= u(2,0,1)p <= 440
 0 <= u(2,0,1)n <= 440
 0 <= x(1,1) <= 30
 0 <= y(1,2,1) <= 1
 0 <= y(2,1,1) <= 1
 0 <= v(1,2,1)p <= 23
 0 <= v(1,2,1)n <= 36
 0 <= v(2,1,1)p <= 25
 0 <= v(2,1,1)n <= 34
 0 <= u(1,2,1)p <= 440
 0 <= u(1,2,1)n <= 440
 0 <= u(2,1,1)p <= 440
 0 <= u(2,1,1)n <= 440
 0 <= x(2,1) <= 29
 7 <= x(0,2) <= 36
 0 <= y(0,1,2) <= 1
 0 <= y(1,0,2) <= 1
 0 <= v(0,1,2)p <= 22
 0 <= v(0,1,2)n <= 37
 0 <= v(1,0,2)p <= 23
 0 <= v(1,0,2)n <= 36
 0 <= u(0,1,2)p <= 440
 0 <= u(0,1,2)n <= 440
 0 <= u(1,0,2)p <= 440
 0 <= u(1,0,2)n <= 440
 0 <= y(0,2,2) <= 1
 0 <= y(2,0,2) <= 1
 0 <= v(0,2,2)p <= 23
 0 <= v(0,2,2)n <= 35
 0 <= v(2,0,2)p <= 22
 0 <= v(2,0,2)n <= 36
 0 <= u(0,2,2)p <= 440
 0 <= u(0,2,2)n <= 440
 0 <= u(2,0,2)p <= 440
 0 <= u(2,0,2)n <= 440
 7 <= x(1,2) <= 37
 0 <= y(1,2,2) <= 1
 0 <= y(2,1,2) <= 1
 0 <= v(1,2,2)p <= 24
 0 <= v(1,2,2)n <= 35
 0 <= v(2,1,2)p <= 22
 0 <= v(2,1,2)n <= 37
 0 <= u(1,2,2)p <= 440
 0 <= u(1,2,2)n <= 440
 0 <= u(2,1,2)p <= 440
 0 <= u(2,1,2)n <= 440
 7 <= x(2,2) <= 36
End
